%nprocshared=8
%mem=10GB
%chk=10cpp_c60_step_7.chk
#p rb3lyp/6-31g(d) counterpoise=2

/Users/wangzhe/Desktop/10cpp_c60/10cpp_c60_step_7.gjf

0 1 0 1 0 1
H(Fragment=1)                 2.877438    6.172261    2.064486
C(Fragment=1)                 3.416667    5.886009    1.165824
C(Fragment=1)                 4.764778    5.023065    -1.085271
C(Fragment=1)                 4.58285    5.140833    1.292233
C(Fragment=1)                 2.858824    6.147524    -0.090928
C(Fragment=1)                 3.620828    5.796636    -1.21185
C(Fragment=1)                 5.219284    4.595605    0.169239
H(Fragment=1)                 4.944673    4.906622    2.289027
H(Fragment=1)                 3.265748    6.050764    -2.206444
H(Fragment=1)                 5.242915    4.658623    -1.98895
C(Fragment=1)                 6.110636    3.40631    0.265296
C(Fragment=1)                 7.043214    0.734456    0.112487
C(Fragment=1)                 5.946782    2.517207    1.334854
C(Fragment=1)                 6.914462    2.978508    -0.801427
C(Fragment=1)                 7.35909    1.663861    -0.884654
C(Fragment=1)                 6.412149    1.212564    1.265187
H(Fragment=1)                 5.33348    2.798052    2.184652
H(Fragment=1)                 7.139781    3.658473    -1.617992
H(Fragment=1)                 7.902712    1.339091    -1.768055
H(Fragment=1)                 6.156911    0.51704    2.059626
C(Fragment=1)                 7.043179    -0.734751    -0.112574
C(Fragment=1)                 6.110471    -3.406564    -0.265345
C(Fragment=1)                 6.412062    -1.212836    -1.265255
C(Fragment=1)                 7.35904    -1.664166    0.884562
C(Fragment=1)                 6.914348    -2.978792    0.801352
C(Fragment=1)                 5.946634    -2.517458    -1.334904
H(Fragment=1)                 6.156833    -0.517304    -2.05969
H(Fragment=1)                 7.9027    -1.339418    1.767947
H(Fragment=1)                 7.139658    -3.658762    1.617915
H(Fragment=1)                 5.333296    -2.798273    -2.184685
C(Fragment=1)                 5.219063    -4.595818    -0.169244
C(Fragment=1)                 2.858545    -6.147635    0.090999
C(Fragment=1)                 4.764565    -5.023235    1.085281
C(Fragment=1)                 4.582591    -5.141054    -1.292216
C(Fragment=1)                 3.416383    -5.886181    -1.165769
C(Fragment=1)                 3.620581    -5.796755    1.211898
H(Fragment=1)                 5.24273    -4.658797    1.988945
H(Fragment=1)                 4.944414    -4.906899    -2.289022
H(Fragment=1)                 2.877132    -6.172443    -2.064415
H(Fragment=1)                 3.265512    -6.050848    2.206505
C(Fragment=1)                 1.420073    -6.496395    0.226354
C(Fragment=1)                 -1.420366    -6.496337    0.226346
C(Fragment=1)                 0.691529    -5.855387    1.235231
C(Fragment=1)                 0.69625    -7.238346    -0.715878
C(Fragment=1)                 -0.696568    -7.238316    -0.715883
C(Fragment=1)                 -0.691802    -5.855361    1.235228
H(Fragment=1)                 1.209739    -5.247013    1.969205
H(Fragment=1)                 1.224838    -7.791964    -1.48749
H(Fragment=1)                 -1.225173    -7.791914    -1.487497
H(Fragment=1)                 -1.209992    -5.246966    1.969201
H(Fragment=1)                 1.225173    7.791854    1.487627
C(Fragment=1)                 0.696568    7.238283    0.715993
C(Fragment=1)                 -0.691528    5.855429    -1.235175
C(Fragment=1)                 -0.69625    7.238312    0.715988
C(Fragment=1)                 1.420365    6.49634    -0.226265
C(Fragment=1)                 0.691803    5.855403    -1.235172
C(Fragment=1)                 -1.420072    6.496397    -0.226274
H(Fragment=1)                 -1.224839    7.791903    1.487619
H(Fragment=1)                 1.209994    5.24704    -1.96917
H(Fragment=1)                 -1.209739    5.247086    -1.969176
C(Fragment=1)                 -2.858545    6.147638    -0.090942
C(Fragment=1)                 -5.21907    4.595819    0.16923
C(Fragment=1)                 -3.416398    5.886148    1.165813
C(Fragment=1)                 -3.620567    5.796786    -1.211861
C(Fragment=1)                 -4.764551    5.023261    -1.085279
C(Fragment=1)                 -4.582611    5.141022    1.292225
H(Fragment=1)                 -2.877156    6.172382    2.064473
H(Fragment=1)                 -3.265482    6.050901    -2.206456
H(Fragment=1)                 -5.242703    4.658844    -1.988959
H(Fragment=1)                 -4.944444    4.906834    2.289019
C(Fragment=1)                 -6.110477    3.406563    0.265294
C(Fragment=1)                 -7.04318    0.734751    0.112493
C(Fragment=1)                 -6.914325    2.978794    -0.801426
C(Fragment=1)                 -5.946668    2.517455    1.334856
C(Fragment=1)                 -6.412094    1.212833    1.265192
C(Fragment=1)                 -7.359014    1.664167    -0.884651
H(Fragment=1)                 -7.139615    3.658766    -1.617992
H(Fragment=1)                 -5.333355    2.798272    2.184655
H(Fragment=1)                 -6.156888    0.5173    2.059633
H(Fragment=1)                 -7.902651    1.33942    -1.76805
C(Fragment=1)                 -7.043213    -0.734457    -0.112566
C(Fragment=1)                 -6.110631    -3.406313    -0.265339
C(Fragment=1)                 -7.359114    -1.663857    0.884571
C(Fragment=1)                 -6.412118    -1.212571    -1.265248
C(Fragment=1)                 -5.946751    -2.517214    -1.334898
C(Fragment=1)                 -6.914483    -2.978505    0.801361
H(Fragment=1)                 -7.902757    -1.339083    1.767957
H(Fragment=1)                 -6.156858    -0.51705    -2.059683
H(Fragment=1)                 -5.333426    -2.798061    -2.184678
H(Fragment=1)                 -7.139821    -3.658465    1.617925
C(Fragment=1)                 -5.219279    -4.595606    -0.169247
C(Fragment=1)                 -2.858823    -6.147521    0.090987
C(Fragment=1)                 -4.76479    -5.023038    1.085279
C(Fragment=1)                 -4.582832    -5.140863    -1.29222
C(Fragment=1)                 -3.416653    -5.88604    -1.165778
C(Fragment=1)                 -3.620841    -5.796604    1.211891
H(Fragment=1)                 -5.24294    -4.658577    1.988943
H(Fragment=1)                 -4.944644    -4.906682    -2.289024
H(Fragment=1)                 -2.877416    -6.172317    -2.064427
H(Fragment=1)                 -3.265775    -6.050711    2.206495
C(Fragment=2)                 -1.80485887    3.02852116    4.28662042
C(Fragment=2)                 -1.88434133    2.51907695    5.64214841
C(Fragment=2)                 -0.74835384    2.47866864    6.4353001
C(Fragment=2)                 0.51901301    2.9454083    5.90960402
C(Fragment=2)                 0.59513538    3.43477612    4.61389784
C(Fragment=2)                 -0.59383894    3.47758914    3.7849605
C(Fragment=2)                 -2.68325994    2.22970112    3.45521913
C(Fragment=2)                 -3.30406796    1.22750928    4.29590986
C(Fragment=2)                 -2.81136895    1.40446962    5.64717694
C(Fragment=2)                 -2.55999239    0.30087925    6.44385198
C(Fragment=2)                 -0.48791558    1.32262918    7.27061421
C(Fragment=2)                 1.56302094    2.07953534    6.42025992
C(Fragment=2)                 2.63805917    1.73902877    5.61167653
C(Fragment=2)                 2.71689903    2.24935354    4.25749453
C(Fragment=2)                 1.71840169    3.07795551    3.76991806
C(Fragment=2)                 1.22416541    2.90033154    2.41909415
C(Fragment=2)                 -0.20439613    3.14833698    2.42698358
C(Fragment=2)                 -1.04412158    2.38429894    1.63289728
C(Fragment=2)                 -2.31193576    1.91678719    2.15814195
C(Fragment=2)                 -3.52808798    -0.04736258    3.80307036
C(Fragment=2)                 -3.13886927    -0.37700659    2.44598575
C(Fragment=2)                 -2.54550968    0.58351561    1.64173984
C(Fragment=2)                 -1.42137754    0.22619468    0.7977578
C(Fragment=2)                 -0.49284235    1.33940951    0.79361706
C(Fragment=2)                 0.87168497    1.1004957    0.78932776
C(Fragment=2)                 1.75095275    1.89882702    1.61849075
C(Fragment=2)                 2.79803696    1.03430455    2.12378822
C(Fragment=2)                 3.2694923    1.20474749    3.41642741
C(Fragment=2)                 0.94154149    1.07617955    7.26139156
C(Fragment=2)                 2.67686354    -2.22461323    4.59692568
C(Fragment=2)                 2.30403266    -1.91029517    5.89087904
C(Fragment=2)                 1.04141262    -2.38082049    6.41834616
C(Fragment=2)                 0.20361237    -3.14753506    5.62693003
C(Fragment=2)                 0.59218934    -3.4762869    4.26895537
C(Fragment=2)                 1.88422901    -2.51711109    2.41132428
C(Fragment=2)                 2.81407824    -1.40361288    2.40539664
C(Fragment=2)                 3.30135813    -1.22404245    3.75756962
C(Fragment=2)                 3.52906472    0.04920835    4.25174379
C(Fragment=2)                 3.13898018    0.37935269    5.60883066
C(Fragment=2)                 2.54084495    -0.57942837    6.41040044
C(Fragment=2)                 0.49202802    -1.34067534    7.26386354
C(Fragment=2)                 -0.87230576    -1.10343742    7.27082752
C(Fragment=2)                 -1.75134944    -1.90137689    6.44077222
C(Fragment=2)                 -1.2258447    -2.90108543    5.63615268
C(Fragment=2)                 -1.71854371    -3.07804577    4.2848856
C(Fragment=2)                 -0.59524771    -3.43281026    3.43957486
C(Fragment=2)                 -0.51937827    -2.9458788    2.14385591
C(Fragment=2)                 0.74821269    -2.47874729    1.61726752
C(Fragment=2)                 2.56641881    -0.29957582    1.60648927
C(Fragment=2)                 1.37568312    -0.25781828    0.77888743
C(Fragment=2)                 0.48713182    -1.32182727    0.78329939
C(Fragment=2)                 -0.94101208    -1.07510586    0.79297118
C(Fragment=2)                 -1.56335737    -2.07796133    1.63410509
C(Fragment=2)                 -2.63685832    -1.73679114    2.4422453
C(Fragment=2)                 -2.71592229    -2.24750776    3.79731962
C(Fragment=2)                 -3.26655978    -1.20351051    4.6374899
C(Fragment=2)                 -2.79228284    -1.03417668    5.92922998
C(Fragment=2)                 1.42081702    -0.22501253    7.25749952
C(Fragment=2)                 -1.37168863    0.2569139    7.27099419
C(Fragment=2)                 1.80343337    -3.02682706    3.76640313


