%nprocshared=8
%mem=10GB
%chk=10cpp_c60_step_3.chk
#p rb3lyp/6-31g(d) counterpoise=2

/Users/wangzhe/Desktop/10cpp_c60/10cpp_c60_step_3.gjf

0 1 0 1 0 1
H(Fragment=1)                 2.877438    6.172261    2.064486
C(Fragment=1)                 3.416667    5.886009    1.165824
C(Fragment=1)                 4.764778    5.023065    -1.085271
C(Fragment=1)                 4.58285    5.140833    1.292233
C(Fragment=1)                 2.858824    6.147524    -0.090928
C(Fragment=1)                 3.620828    5.796636    -1.21185
C(Fragment=1)                 5.219284    4.595605    0.169239
H(Fragment=1)                 4.944673    4.906622    2.289027
H(Fragment=1)                 3.265748    6.050764    -2.206444
H(Fragment=1)                 5.242915    4.658623    -1.98895
C(Fragment=1)                 6.110636    3.40631    0.265296
C(Fragment=1)                 7.043214    0.734456    0.112487
C(Fragment=1)                 5.946782    2.517207    1.334854
C(Fragment=1)                 6.914462    2.978508    -0.801427
C(Fragment=1)                 7.35909    1.663861    -0.884654
C(Fragment=1)                 6.412149    1.212564    1.265187
H(Fragment=1)                 5.33348    2.798052    2.184652
H(Fragment=1)                 7.139781    3.658473    -1.617992
H(Fragment=1)                 7.902712    1.339091    -1.768055
H(Fragment=1)                 6.156911    0.51704    2.059626
C(Fragment=1)                 7.043179    -0.734751    -0.112574
C(Fragment=1)                 6.110471    -3.406564    -0.265345
C(Fragment=1)                 6.412062    -1.212836    -1.265255
C(Fragment=1)                 7.35904    -1.664166    0.884562
C(Fragment=1)                 6.914348    -2.978792    0.801352
C(Fragment=1)                 5.946634    -2.517458    -1.334904
H(Fragment=1)                 6.156833    -0.517304    -2.05969
H(Fragment=1)                 7.9027    -1.339418    1.767947
H(Fragment=1)                 7.139658    -3.658762    1.617915
H(Fragment=1)                 5.333296    -2.798273    -2.184685
C(Fragment=1)                 5.219063    -4.595818    -0.169244
C(Fragment=1)                 2.858545    -6.147635    0.090999
C(Fragment=1)                 4.764565    -5.023235    1.085281
C(Fragment=1)                 4.582591    -5.141054    -1.292216
C(Fragment=1)                 3.416383    -5.886181    -1.165769
C(Fragment=1)                 3.620581    -5.796755    1.211898
H(Fragment=1)                 5.24273    -4.658797    1.988945
H(Fragment=1)                 4.944414    -4.906899    -2.289022
H(Fragment=1)                 2.877132    -6.172443    -2.064415
H(Fragment=1)                 3.265512    -6.050848    2.206505
C(Fragment=1)                 1.420073    -6.496395    0.226354
C(Fragment=1)                 -1.420366    -6.496337    0.226346
C(Fragment=1)                 0.691529    -5.855387    1.235231
C(Fragment=1)                 0.69625    -7.238346    -0.715878
C(Fragment=1)                 -0.696568    -7.238316    -0.715883
C(Fragment=1)                 -0.691802    -5.855361    1.235228
H(Fragment=1)                 1.209739    -5.247013    1.969205
H(Fragment=1)                 1.224838    -7.791964    -1.48749
H(Fragment=1)                 -1.225173    -7.791914    -1.487497
H(Fragment=1)                 -1.209992    -5.246966    1.969201
H(Fragment=1)                 1.225173    7.791854    1.487627
C(Fragment=1)                 0.696568    7.238283    0.715993
C(Fragment=1)                 -0.691528    5.855429    -1.235175
C(Fragment=1)                 -0.69625    7.238312    0.715988
C(Fragment=1)                 1.420365    6.49634    -0.226265
C(Fragment=1)                 0.691803    5.855403    -1.235172
C(Fragment=1)                 -1.420072    6.496397    -0.226274
H(Fragment=1)                 -1.224839    7.791903    1.487619
H(Fragment=1)                 1.209994    5.24704    -1.96917
H(Fragment=1)                 -1.209739    5.247086    -1.969176
C(Fragment=1)                 -2.858545    6.147638    -0.090942
C(Fragment=1)                 -5.21907    4.595819    0.16923
C(Fragment=1)                 -3.416398    5.886148    1.165813
C(Fragment=1)                 -3.620567    5.796786    -1.211861
C(Fragment=1)                 -4.764551    5.023261    -1.085279
C(Fragment=1)                 -4.582611    5.141022    1.292225
H(Fragment=1)                 -2.877156    6.172382    2.064473
H(Fragment=1)                 -3.265482    6.050901    -2.206456
H(Fragment=1)                 -5.242703    4.658844    -1.988959
H(Fragment=1)                 -4.944444    4.906834    2.289019
C(Fragment=1)                 -6.110477    3.406563    0.265294
C(Fragment=1)                 -7.04318    0.734751    0.112493
C(Fragment=1)                 -6.914325    2.978794    -0.801426
C(Fragment=1)                 -5.946668    2.517455    1.334856
C(Fragment=1)                 -6.412094    1.212833    1.265192
C(Fragment=1)                 -7.359014    1.664167    -0.884651
H(Fragment=1)                 -7.139615    3.658766    -1.617992
H(Fragment=1)                 -5.333355    2.798272    2.184655
H(Fragment=1)                 -6.156888    0.5173    2.059633
H(Fragment=1)                 -7.902651    1.33942    -1.76805
C(Fragment=1)                 -7.043213    -0.734457    -0.112566
C(Fragment=1)                 -6.110631    -3.406313    -0.265339
C(Fragment=1)                 -7.359114    -1.663857    0.884571
C(Fragment=1)                 -6.412118    -1.212571    -1.265248
C(Fragment=1)                 -5.946751    -2.517214    -1.334898
C(Fragment=1)                 -6.914483    -2.978505    0.801361
H(Fragment=1)                 -7.902757    -1.339083    1.767957
H(Fragment=1)                 -6.156858    -0.51705    -2.059683
H(Fragment=1)                 -5.333426    -2.798061    -2.184678
H(Fragment=1)                 -7.139821    -3.658465    1.617925
C(Fragment=1)                 -5.219279    -4.595606    -0.169247
C(Fragment=1)                 -2.858823    -6.147521    0.090987
C(Fragment=1)                 -4.76479    -5.023038    1.085279
C(Fragment=1)                 -4.582832    -5.140863    -1.29222
C(Fragment=1)                 -3.416653    -5.88604    -1.165778
C(Fragment=1)                 -3.620841    -5.796604    1.211891
H(Fragment=1)                 -5.24294    -4.658577    1.988943
H(Fragment=1)                 -4.944644    -4.906682    -2.289024
H(Fragment=1)                 -2.877416    -6.172317    -2.064427
H(Fragment=1)                 -3.265775    -6.050711    2.206495
C(Fragment=2)                 -1.80505033    3.02935169    9.60662035
C(Fragment=2)                 -1.88453279    2.51990748    10.96214834
C(Fragment=2)                 -0.7485453    2.47949917    11.75530003
C(Fragment=2)                 0.51882155    2.94623883    11.22960395
C(Fragment=2)                 0.59494392    3.43560665    9.93389777
C(Fragment=2)                 -0.5940304    3.47841967    9.10496043
C(Fragment=2)                 -2.6834514    2.23053165    8.77521906
C(Fragment=2)                 -3.30425942    1.22833981    9.61590979
C(Fragment=2)                 -2.81156041    1.40530015    10.96717687
C(Fragment=2)                 -2.56018385    0.30170978    11.76385191
C(Fragment=2)                 -0.48810704    1.32345971    12.59061414
C(Fragment=2)                 1.56282948    2.08036587    11.74025985
C(Fragment=2)                 2.63786771    1.7398593    10.93167646
C(Fragment=2)                 2.71670757    2.25018407    9.57749446
C(Fragment=2)                 1.71821023    3.07878604    9.08991799
C(Fragment=2)                 1.22397395    2.90116207    7.73909408
C(Fragment=2)                 -0.20458759    3.14916751    7.74698351
C(Fragment=2)                 -1.04431304    2.38512947    6.95289721
C(Fragment=2)                 -2.31212722    1.91761772    7.47814188
C(Fragment=2)                 -3.52827944    -0.04653205    9.12307029
C(Fragment=2)                 -3.13906073    -0.37617606    7.76598568
C(Fragment=2)                 -2.54570114    0.58434614    6.96173977
C(Fragment=2)                 -1.421569    0.22702521    6.11775773
C(Fragment=2)                 -0.49303381    1.34024004    6.11361699
C(Fragment=2)                 0.87149351    1.10132623    6.10932769
C(Fragment=2)                 1.75076129    1.89965755    6.93849068
C(Fragment=2)                 2.7978455    1.03513508    7.44378815
C(Fragment=2)                 3.26930084    1.20557802    8.73642734
C(Fragment=2)                 0.94135003    1.07701008    12.58139149
C(Fragment=2)                 2.67667208    -2.2237827    9.91692561
C(Fragment=2)                 2.3038412    -1.90946464    11.21087897
C(Fragment=2)                 1.04122116    -2.37998996    11.73834609
C(Fragment=2)                 0.20342091    -3.14670453    10.94692996
C(Fragment=2)                 0.59199788    -3.47545637    9.5889553
C(Fragment=2)                 1.88403755    -2.51628056    7.73132421
C(Fragment=2)                 2.81388678    -1.40278235    7.72539657
C(Fragment=2)                 3.30116667    -1.22321192    9.07756955
C(Fragment=2)                 3.52887326    0.05003888    9.57174372
C(Fragment=2)                 3.13878872    0.38018322    10.92883059
C(Fragment=2)                 2.54065349    -0.57859784    11.73040037
C(Fragment=2)                 0.49183656    -1.33984481    12.58386347
C(Fragment=2)                 -0.87249722    -1.10260689    12.59082745
C(Fragment=2)                 -1.7515409    -1.90054636    11.76077215
C(Fragment=2)                 -1.22603616    -2.9002549    10.95615261
C(Fragment=2)                 -1.71873517    -3.07721524    9.60488553
C(Fragment=2)                 -0.59543917    -3.43197973    8.75957479
C(Fragment=2)                 -0.51956973    -2.94504827    7.46385584
C(Fragment=2)                 0.74802123    -2.47791676    6.93726745
C(Fragment=2)                 2.56622735    -0.29874529    6.9264892
C(Fragment=2)                 1.37549166    -0.25698775    6.09888736
C(Fragment=2)                 0.48694036    -1.32099674    6.10329932
C(Fragment=2)                 -0.94120354    -1.07427533    6.11297111
C(Fragment=2)                 -1.56354883    -2.0771308    6.95410502
C(Fragment=2)                 -2.63704978    -1.73596061    7.76224523
C(Fragment=2)                 -2.71611375    -2.24667723    9.11731955
C(Fragment=2)                 -3.26675124    -1.20267998    9.95748983
C(Fragment=2)                 -2.7924743    -1.03334615    11.24922991
C(Fragment=2)                 1.42062556    -0.224182    12.57749945
C(Fragment=2)                 -1.37188009    0.25774443    12.59099412
C(Fragment=2)                 1.80324191    -3.02599653    9.08640306


