%nprocshared=8
%mem=10GB
%chk=10cpp_c60_step_6.chk
#p rb3lyp/6-31g(d) counterpoise=2

/Users/wangzhe/Desktop/10cpp_c60/10cpp_c60_step_6.gjf

0 1 0 1 0 1
H(Fragment=1)                 2.877438    6.172261    2.064486
C(Fragment=1)                 3.416667    5.886009    1.165824
C(Fragment=1)                 4.764778    5.023065    -1.085271
C(Fragment=1)                 4.58285    5.140833    1.292233
C(Fragment=1)                 2.858824    6.147524    -0.090928
C(Fragment=1)                 3.620828    5.796636    -1.21185
C(Fragment=1)                 5.219284    4.595605    0.169239
H(Fragment=1)                 4.944673    4.906622    2.289027
H(Fragment=1)                 3.265748    6.050764    -2.206444
H(Fragment=1)                 5.242915    4.658623    -1.98895
C(Fragment=1)                 6.110636    3.40631    0.265296
C(Fragment=1)                 7.043214    0.734456    0.112487
C(Fragment=1)                 5.946782    2.517207    1.334854
C(Fragment=1)                 6.914462    2.978508    -0.801427
C(Fragment=1)                 7.35909    1.663861    -0.884654
C(Fragment=1)                 6.412149    1.212564    1.265187
H(Fragment=1)                 5.33348    2.798052    2.184652
H(Fragment=1)                 7.139781    3.658473    -1.617992
H(Fragment=1)                 7.902712    1.339091    -1.768055
H(Fragment=1)                 6.156911    0.51704    2.059626
C(Fragment=1)                 7.043179    -0.734751    -0.112574
C(Fragment=1)                 6.110471    -3.406564    -0.265345
C(Fragment=1)                 6.412062    -1.212836    -1.265255
C(Fragment=1)                 7.35904    -1.664166    0.884562
C(Fragment=1)                 6.914348    -2.978792    0.801352
C(Fragment=1)                 5.946634    -2.517458    -1.334904
H(Fragment=1)                 6.156833    -0.517304    -2.05969
H(Fragment=1)                 7.9027    -1.339418    1.767947
H(Fragment=1)                 7.139658    -3.658762    1.617915
H(Fragment=1)                 5.333296    -2.798273    -2.184685
C(Fragment=1)                 5.219063    -4.595818    -0.169244
C(Fragment=1)                 2.858545    -6.147635    0.090999
C(Fragment=1)                 4.764565    -5.023235    1.085281
C(Fragment=1)                 4.582591    -5.141054    -1.292216
C(Fragment=1)                 3.416383    -5.886181    -1.165769
C(Fragment=1)                 3.620581    -5.796755    1.211898
H(Fragment=1)                 5.24273    -4.658797    1.988945
H(Fragment=1)                 4.944414    -4.906899    -2.289022
H(Fragment=1)                 2.877132    -6.172443    -2.064415
H(Fragment=1)                 3.265512    -6.050848    2.206505
C(Fragment=1)                 1.420073    -6.496395    0.226354
C(Fragment=1)                 -1.420366    -6.496337    0.226346
C(Fragment=1)                 0.691529    -5.855387    1.235231
C(Fragment=1)                 0.69625    -7.238346    -0.715878
C(Fragment=1)                 -0.696568    -7.238316    -0.715883
C(Fragment=1)                 -0.691802    -5.855361    1.235228
H(Fragment=1)                 1.209739    -5.247013    1.969205
H(Fragment=1)                 1.224838    -7.791964    -1.48749
H(Fragment=1)                 -1.225173    -7.791914    -1.487497
H(Fragment=1)                 -1.209992    -5.246966    1.969201
H(Fragment=1)                 1.225173    7.791854    1.487627
C(Fragment=1)                 0.696568    7.238283    0.715993
C(Fragment=1)                 -0.691528    5.855429    -1.235175
C(Fragment=1)                 -0.69625    7.238312    0.715988
C(Fragment=1)                 1.420365    6.49634    -0.226265
C(Fragment=1)                 0.691803    5.855403    -1.235172
C(Fragment=1)                 -1.420072    6.496397    -0.226274
H(Fragment=1)                 -1.224839    7.791903    1.487619
H(Fragment=1)                 1.209994    5.24704    -1.96917
H(Fragment=1)                 -1.209739    5.247086    -1.969176
C(Fragment=1)                 -2.858545    6.147638    -0.090942
C(Fragment=1)                 -5.21907    4.595819    0.16923
C(Fragment=1)                 -3.416398    5.886148    1.165813
C(Fragment=1)                 -3.620567    5.796786    -1.211861
C(Fragment=1)                 -4.764551    5.023261    -1.085279
C(Fragment=1)                 -4.582611    5.141022    1.292225
H(Fragment=1)                 -2.877156    6.172382    2.064473
H(Fragment=1)                 -3.265482    6.050901    -2.206456
H(Fragment=1)                 -5.242703    4.658844    -1.988959
H(Fragment=1)                 -4.944444    4.906834    2.289019
C(Fragment=1)                 -6.110477    3.406563    0.265294
C(Fragment=1)                 -7.04318    0.734751    0.112493
C(Fragment=1)                 -6.914325    2.978794    -0.801426
C(Fragment=1)                 -5.946668    2.517455    1.334856
C(Fragment=1)                 -6.412094    1.212833    1.265192
C(Fragment=1)                 -7.359014    1.664167    -0.884651
H(Fragment=1)                 -7.139615    3.658766    -1.617992
H(Fragment=1)                 -5.333355    2.798272    2.184655
H(Fragment=1)                 -6.156888    0.5173    2.059633
H(Fragment=1)                 -7.902651    1.33942    -1.76805
C(Fragment=1)                 -7.043213    -0.734457    -0.112566
C(Fragment=1)                 -6.110631    -3.406313    -0.265339
C(Fragment=1)                 -7.359114    -1.663857    0.884571
C(Fragment=1)                 -6.412118    -1.212571    -1.265248
C(Fragment=1)                 -5.946751    -2.517214    -1.334898
C(Fragment=1)                 -6.914483    -2.978505    0.801361
H(Fragment=1)                 -7.902757    -1.339083    1.767957
H(Fragment=1)                 -6.156858    -0.51705    -2.059683
H(Fragment=1)                 -5.333426    -2.798061    -2.184678
H(Fragment=1)                 -7.139821    -3.658465    1.617925
C(Fragment=1)                 -5.219279    -4.595606    -0.169247
C(Fragment=1)                 -2.858823    -6.147521    0.090987
C(Fragment=1)                 -4.76479    -5.023038    1.085279
C(Fragment=1)                 -4.582832    -5.140863    -1.29222
C(Fragment=1)                 -3.416653    -5.88604    -1.165778
C(Fragment=1)                 -3.620841    -5.796604    1.211891
H(Fragment=1)                 -5.24294    -4.658577    1.988943
H(Fragment=1)                 -4.944644    -4.906682    -2.289024
H(Fragment=1)                 -2.877416    -6.172317    -2.064427
H(Fragment=1)                 -3.265775    -6.050711    2.206495
C(Fragment=2)                 -1.80490674    3.02872879    5.6166204
C(Fragment=2)                 -1.8843892    2.51928458    6.97214839
C(Fragment=2)                 -0.74840171    2.47887627    7.76530008
C(Fragment=2)                 0.51896514    2.94561593    7.239604
C(Fragment=2)                 0.59508751    3.43498375    5.94389782
C(Fragment=2)                 -0.59388681    3.47779677    5.11496048
C(Fragment=2)                 -2.68330781    2.22990875    4.78521911
C(Fragment=2)                 -3.30411583    1.22771691    5.62590984
C(Fragment=2)                 -2.81141682    1.40467725    6.97717692
C(Fragment=2)                 -2.56004026    0.30108688    7.77385196
C(Fragment=2)                 -0.48796345    1.32283681    8.60061419
C(Fragment=2)                 1.56297307    2.07974297    7.7502599
C(Fragment=2)                 2.6380113    1.7392364    6.94167651
C(Fragment=2)                 2.71685116    2.24956117    5.58749451
C(Fragment=2)                 1.71835382    3.07816314    5.09991804
C(Fragment=2)                 1.22411754    2.90053917    3.74909413
C(Fragment=2)                 -0.204444    3.14854461    3.75698356
C(Fragment=2)                 -1.04416945    2.38450657    2.96289726
C(Fragment=2)                 -2.31198363    1.91699482    3.48814193
C(Fragment=2)                 -3.52813585    -0.04715495    5.13307034
C(Fragment=2)                 -3.13891714    -0.37679896    3.77598573
C(Fragment=2)                 -2.54555755    0.58372324    2.97173982
C(Fragment=2)                 -1.42142541    0.22640231    2.12775778
C(Fragment=2)                 -0.49289022    1.33961714    2.12361704
C(Fragment=2)                 0.8716371    1.10070333    2.11932774
C(Fragment=2)                 1.75090488    1.89903465    2.94849073
C(Fragment=2)                 2.79798909    1.03451218    3.4537882
C(Fragment=2)                 3.26944443    1.20495512    4.74642739
C(Fragment=2)                 0.94149362    1.07638718    8.59139154
C(Fragment=2)                 2.67681567    -2.2244056    5.92692566
C(Fragment=2)                 2.30398479    -1.91008754    7.22087902
C(Fragment=2)                 1.04136475    -2.38061286    7.74834614
C(Fragment=2)                 0.2035645    -3.14732743    6.95693001
C(Fragment=2)                 0.59214147    -3.47607927    5.59895535
C(Fragment=2)                 1.88418114    -2.51690346    3.74132426
C(Fragment=2)                 2.81403037    -1.40340525    3.73539662
C(Fragment=2)                 3.30131026    -1.22383482    5.0875696
C(Fragment=2)                 3.52901685    0.04941598    5.58174377
C(Fragment=2)                 3.13893231    0.37956032    6.93883064
C(Fragment=2)                 2.54079708    -0.57922074    7.74040042
C(Fragment=2)                 0.49198015    -1.34046771    8.59386352
C(Fragment=2)                 -0.87235363    -1.10322979    8.6008275
C(Fragment=2)                 -1.75139731    -1.90116926    7.7707722
C(Fragment=2)                 -1.22589257    -2.9008778    6.96615266
C(Fragment=2)                 -1.71859158    -3.07783814    5.61488558
C(Fragment=2)                 -0.59529558    -3.43260263    4.76957484
C(Fragment=2)                 -0.51942614    -2.94567117    3.47385589
C(Fragment=2)                 0.74816482    -2.47853966    2.9472675
C(Fragment=2)                 2.56637094    -0.29936819    2.93648925
C(Fragment=2)                 1.37563525    -0.25761065    2.10888741
C(Fragment=2)                 0.48708395    -1.32161964    2.11329937
C(Fragment=2)                 -0.94105995    -1.07489823    2.12297116
C(Fragment=2)                 -1.56340524    -2.0777537    2.96410507
C(Fragment=2)                 -2.63690619    -1.73658351    3.77224528
C(Fragment=2)                 -2.71597016    -2.24730013    5.1273196
C(Fragment=2)                 -3.26660765    -1.20330288    5.96748988
C(Fragment=2)                 -2.79233071    -1.03396905    7.25922996
C(Fragment=2)                 1.42076915    -0.2248049    8.5874995
C(Fragment=2)                 -1.3717365    0.25712153    8.60099417
C(Fragment=2)                 1.8033855    -3.02661943    5.09640311


