%nprocshared=8
%mem=10GB
%chk=10cpp_c60_step_4.chk
#p rb3lyp/6-31g(d) counterpoise=2

/Users/wangzhe/Desktop/10cpp_c60/10cpp_c60_step_4.gjf

0 1 0 1 0 1
H(Fragment=1)                 2.877438    6.172261    2.064486
C(Fragment=1)                 3.416667    5.886009    1.165824
C(Fragment=1)                 4.764778    5.023065    -1.085271
C(Fragment=1)                 4.58285    5.140833    1.292233
C(Fragment=1)                 2.858824    6.147524    -0.090928
C(Fragment=1)                 3.620828    5.796636    -1.21185
C(Fragment=1)                 5.219284    4.595605    0.169239
H(Fragment=1)                 4.944673    4.906622    2.289027
H(Fragment=1)                 3.265748    6.050764    -2.206444
H(Fragment=1)                 5.242915    4.658623    -1.98895
C(Fragment=1)                 6.110636    3.40631    0.265296
C(Fragment=1)                 7.043214    0.734456    0.112487
C(Fragment=1)                 5.946782    2.517207    1.334854
C(Fragment=1)                 6.914462    2.978508    -0.801427
C(Fragment=1)                 7.35909    1.663861    -0.884654
C(Fragment=1)                 6.412149    1.212564    1.265187
H(Fragment=1)                 5.33348    2.798052    2.184652
H(Fragment=1)                 7.139781    3.658473    -1.617992
H(Fragment=1)                 7.902712    1.339091    -1.768055
H(Fragment=1)                 6.156911    0.51704    2.059626
C(Fragment=1)                 7.043179    -0.734751    -0.112574
C(Fragment=1)                 6.110471    -3.406564    -0.265345
C(Fragment=1)                 6.412062    -1.212836    -1.265255
C(Fragment=1)                 7.35904    -1.664166    0.884562
C(Fragment=1)                 6.914348    -2.978792    0.801352
C(Fragment=1)                 5.946634    -2.517458    -1.334904
H(Fragment=1)                 6.156833    -0.517304    -2.05969
H(Fragment=1)                 7.9027    -1.339418    1.767947
H(Fragment=1)                 7.139658    -3.658762    1.617915
H(Fragment=1)                 5.333296    -2.798273    -2.184685
C(Fragment=1)                 5.219063    -4.595818    -0.169244
C(Fragment=1)                 2.858545    -6.147635    0.090999
C(Fragment=1)                 4.764565    -5.023235    1.085281
C(Fragment=1)                 4.582591    -5.141054    -1.292216
C(Fragment=1)                 3.416383    -5.886181    -1.165769
C(Fragment=1)                 3.620581    -5.796755    1.211898
H(Fragment=1)                 5.24273    -4.658797    1.988945
H(Fragment=1)                 4.944414    -4.906899    -2.289022
H(Fragment=1)                 2.877132    -6.172443    -2.064415
H(Fragment=1)                 3.265512    -6.050848    2.206505
C(Fragment=1)                 1.420073    -6.496395    0.226354
C(Fragment=1)                 -1.420366    -6.496337    0.226346
C(Fragment=1)                 0.691529    -5.855387    1.235231
C(Fragment=1)                 0.69625    -7.238346    -0.715878
C(Fragment=1)                 -0.696568    -7.238316    -0.715883
C(Fragment=1)                 -0.691802    -5.855361    1.235228
H(Fragment=1)                 1.209739    -5.247013    1.969205
H(Fragment=1)                 1.224838    -7.791964    -1.48749
H(Fragment=1)                 -1.225173    -7.791914    -1.487497
H(Fragment=1)                 -1.209992    -5.246966    1.969201
H(Fragment=1)                 1.225173    7.791854    1.487627
C(Fragment=1)                 0.696568    7.238283    0.715993
C(Fragment=1)                 -0.691528    5.855429    -1.235175
C(Fragment=1)                 -0.69625    7.238312    0.715988
C(Fragment=1)                 1.420365    6.49634    -0.226265
C(Fragment=1)                 0.691803    5.855403    -1.235172
C(Fragment=1)                 -1.420072    6.496397    -0.226274
H(Fragment=1)                 -1.224839    7.791903    1.487619
H(Fragment=1)                 1.209994    5.24704    -1.96917
H(Fragment=1)                 -1.209739    5.247086    -1.969176
C(Fragment=1)                 -2.858545    6.147638    -0.090942
C(Fragment=1)                 -5.21907    4.595819    0.16923
C(Fragment=1)                 -3.416398    5.886148    1.165813
C(Fragment=1)                 -3.620567    5.796786    -1.211861
C(Fragment=1)                 -4.764551    5.023261    -1.085279
C(Fragment=1)                 -4.582611    5.141022    1.292225
H(Fragment=1)                 -2.877156    6.172382    2.064473
H(Fragment=1)                 -3.265482    6.050901    -2.206456
H(Fragment=1)                 -5.242703    4.658844    -1.988959
H(Fragment=1)                 -4.944444    4.906834    2.289019
C(Fragment=1)                 -6.110477    3.406563    0.265294
C(Fragment=1)                 -7.04318    0.734751    0.112493
C(Fragment=1)                 -6.914325    2.978794    -0.801426
C(Fragment=1)                 -5.946668    2.517455    1.334856
C(Fragment=1)                 -6.412094    1.212833    1.265192
C(Fragment=1)                 -7.359014    1.664167    -0.884651
H(Fragment=1)                 -7.139615    3.658766    -1.617992
H(Fragment=1)                 -5.333355    2.798272    2.184655
H(Fragment=1)                 -6.156888    0.5173    2.059633
H(Fragment=1)                 -7.902651    1.33942    -1.76805
C(Fragment=1)                 -7.043213    -0.734457    -0.112566
C(Fragment=1)                 -6.110631    -3.406313    -0.265339
C(Fragment=1)                 -7.359114    -1.663857    0.884571
C(Fragment=1)                 -6.412118    -1.212571    -1.265248
C(Fragment=1)                 -5.946751    -2.517214    -1.334898
C(Fragment=1)                 -6.914483    -2.978505    0.801361
H(Fragment=1)                 -7.902757    -1.339083    1.767957
H(Fragment=1)                 -6.156858    -0.51705    -2.059683
H(Fragment=1)                 -5.333426    -2.798061    -2.184678
H(Fragment=1)                 -7.139821    -3.658465    1.617925
C(Fragment=1)                 -5.219279    -4.595606    -0.169247
C(Fragment=1)                 -2.858823    -6.147521    0.090987
C(Fragment=1)                 -4.76479    -5.023038    1.085279
C(Fragment=1)                 -4.582832    -5.140863    -1.29222
C(Fragment=1)                 -3.416653    -5.88604    -1.165778
C(Fragment=1)                 -3.620841    -5.796604    1.211891
H(Fragment=1)                 -5.24294    -4.658577    1.988943
H(Fragment=1)                 -4.944644    -4.906682    -2.289024
H(Fragment=1)                 -2.877416    -6.172317    -2.064427
H(Fragment=1)                 -3.265775    -6.050711    2.206495
C(Fragment=2)                 -1.80500246    3.02914406    8.27662037
C(Fragment=2)                 -1.88448492    2.51969985    9.63214836
C(Fragment=2)                 -0.74849743    2.47929154    10.42530005
C(Fragment=2)                 0.51886942    2.9460312    9.89960397
C(Fragment=2)                 0.59499179    3.43539902    8.60389779
C(Fragment=2)                 -0.59398253    3.47821204    7.77496045
C(Fragment=2)                 -2.68340353    2.23032402    7.44521908
C(Fragment=2)                 -3.30421155    1.22813218    8.28590981
C(Fragment=2)                 -2.81151254    1.40509252    9.63717689
C(Fragment=2)                 -2.56013598    0.30150215    10.43385193
C(Fragment=2)                 -0.48805917    1.32325208    11.26061416
C(Fragment=2)                 1.56287735    2.08015824    10.41025987
C(Fragment=2)                 2.63791558    1.73965167    9.60167648
C(Fragment=2)                 2.71675544    2.24997644    8.24749448
C(Fragment=2)                 1.7182581    3.07857841    7.75991801
C(Fragment=2)                 1.22402182    2.90095444    6.4090941
C(Fragment=2)                 -0.20453972    3.14895988    6.41698353
C(Fragment=2)                 -1.04426517    2.38492184    5.62289723
C(Fragment=2)                 -2.31207935    1.91741009    6.1481419
C(Fragment=2)                 -3.52823157    -0.04673968    7.79307031
C(Fragment=2)                 -3.13901286    -0.37638369    6.4359857
C(Fragment=2)                 -2.54565327    0.58413851    5.63173979
C(Fragment=2)                 -1.42152113    0.22681758    4.78775775
C(Fragment=2)                 -0.49298594    1.34003241    4.78361701
C(Fragment=2)                 0.87154138    1.1011186    4.77932771
C(Fragment=2)                 1.75080916    1.89944992    5.6084907
C(Fragment=2)                 2.79789337    1.03492745    6.11378817
C(Fragment=2)                 3.26934871    1.20537039    7.40642736
C(Fragment=2)                 0.9413979    1.07680245    11.25139151
C(Fragment=2)                 2.67671995    -2.22399033    8.58692563
C(Fragment=2)                 2.30388907    -1.90967227    9.88087899
C(Fragment=2)                 1.04126903    -2.38019759    10.40834611
C(Fragment=2)                 0.20346878    -3.14691216    9.61692998
C(Fragment=2)                 0.59204575    -3.475664    8.25895532
C(Fragment=2)                 1.88408542    -2.51648819    6.40132423
C(Fragment=2)                 2.81393465    -1.40298998    6.39539659
C(Fragment=2)                 3.30121454    -1.22341955    7.74756957
C(Fragment=2)                 3.52892113    0.04983125    8.24174374
C(Fragment=2)                 3.13883659    0.37997559    9.59883061
C(Fragment=2)                 2.54070136    -0.57880547    10.40040039
C(Fragment=2)                 0.49188443    -1.34005244    11.25386349
C(Fragment=2)                 -0.87244935    -1.10281452    11.26082747
C(Fragment=2)                 -1.75149303    -1.90075399    10.43077217
C(Fragment=2)                 -1.22598829    -2.90046253    9.62615263
C(Fragment=2)                 -1.7186873    -3.07742287    8.27488555
C(Fragment=2)                 -0.5953913    -3.43218736    7.42957481
C(Fragment=2)                 -0.51952186    -2.9452559    6.13385586
C(Fragment=2)                 0.7480691    -2.47812439    5.60726747
C(Fragment=2)                 2.56627522    -0.29895292    5.59648922
C(Fragment=2)                 1.37553953    -0.25719538    4.76888738
C(Fragment=2)                 0.48698823    -1.32120437    4.77329934
C(Fragment=2)                 -0.94115567    -1.07448296    4.78297113
C(Fragment=2)                 -1.56350096    -2.07733843    5.62410504
C(Fragment=2)                 -2.63700191    -1.73616824    6.43224525
C(Fragment=2)                 -2.71606588    -2.24688486    7.78731957
C(Fragment=2)                 -3.26670337    -1.20288761    8.62748985
C(Fragment=2)                 -2.79242643    -1.03355378    9.91922993
C(Fragment=2)                 1.42067343    -0.22438963    11.24749947
C(Fragment=2)                 -1.37183222    0.2575368    11.26099414
C(Fragment=2)                 1.80328978    -3.02620416    7.75640308


