%nprocshared=8
%mem=10GB
%chk=10cpp_c60_step_10.chk
#p rb3lyp/6-31g(d) counterpoise=2

/Users/wangzhe/Desktop/10cpp_c60/10cpp_c60_step_10.gjf

0 1 0 1 0 1
H(Fragment=1)                 2.877438    6.172261    2.064486
C(Fragment=1)                 3.416667    5.886009    1.165824
C(Fragment=1)                 4.764778    5.023065    -1.085271
C(Fragment=1)                 4.58285    5.140833    1.292233
C(Fragment=1)                 2.858824    6.147524    -0.090928
C(Fragment=1)                 3.620828    5.796636    -1.21185
C(Fragment=1)                 5.219284    4.595605    0.169239
H(Fragment=1)                 4.944673    4.906622    2.289027
H(Fragment=1)                 3.265748    6.050764    -2.206444
H(Fragment=1)                 5.242915    4.658623    -1.98895
C(Fragment=1)                 6.110636    3.40631    0.265296
C(Fragment=1)                 7.043214    0.734456    0.112487
C(Fragment=1)                 5.946782    2.517207    1.334854
C(Fragment=1)                 6.914462    2.978508    -0.801427
C(Fragment=1)                 7.35909    1.663861    -0.884654
C(Fragment=1)                 6.412149    1.212564    1.265187
H(Fragment=1)                 5.33348    2.798052    2.184652
H(Fragment=1)                 7.139781    3.658473    -1.617992
H(Fragment=1)                 7.902712    1.339091    -1.768055
H(Fragment=1)                 6.156911    0.51704    2.059626
C(Fragment=1)                 7.043179    -0.734751    -0.112574
C(Fragment=1)                 6.110471    -3.406564    -0.265345
C(Fragment=1)                 6.412062    -1.212836    -1.265255
C(Fragment=1)                 7.35904    -1.664166    0.884562
C(Fragment=1)                 6.914348    -2.978792    0.801352
C(Fragment=1)                 5.946634    -2.517458    -1.334904
H(Fragment=1)                 6.156833    -0.517304    -2.05969
H(Fragment=1)                 7.9027    -1.339418    1.767947
H(Fragment=1)                 7.139658    -3.658762    1.617915
H(Fragment=1)                 5.333296    -2.798273    -2.184685
C(Fragment=1)                 5.219063    -4.595818    -0.169244
C(Fragment=1)                 2.858545    -6.147635    0.090999
C(Fragment=1)                 4.764565    -5.023235    1.085281
C(Fragment=1)                 4.582591    -5.141054    -1.292216
C(Fragment=1)                 3.416383    -5.886181    -1.165769
C(Fragment=1)                 3.620581    -5.796755    1.211898
H(Fragment=1)                 5.24273    -4.658797    1.988945
H(Fragment=1)                 4.944414    -4.906899    -2.289022
H(Fragment=1)                 2.877132    -6.172443    -2.064415
H(Fragment=1)                 3.265512    -6.050848    2.206505
C(Fragment=1)                 1.420073    -6.496395    0.226354
C(Fragment=1)                 -1.420366    -6.496337    0.226346
C(Fragment=1)                 0.691529    -5.855387    1.235231
C(Fragment=1)                 0.69625    -7.238346    -0.715878
C(Fragment=1)                 -0.696568    -7.238316    -0.715883
C(Fragment=1)                 -0.691802    -5.855361    1.235228
H(Fragment=1)                 1.209739    -5.247013    1.969205
H(Fragment=1)                 1.224838    -7.791964    -1.48749
H(Fragment=1)                 -1.225173    -7.791914    -1.487497
H(Fragment=1)                 -1.209992    -5.246966    1.969201
H(Fragment=1)                 1.225173    7.791854    1.487627
C(Fragment=1)                 0.696568    7.238283    0.715993
C(Fragment=1)                 -0.691528    5.855429    -1.235175
C(Fragment=1)                 -0.69625    7.238312    0.715988
C(Fragment=1)                 1.420365    6.49634    -0.226265
C(Fragment=1)                 0.691803    5.855403    -1.235172
C(Fragment=1)                 -1.420072    6.496397    -0.226274
H(Fragment=1)                 -1.224839    7.791903    1.487619
H(Fragment=1)                 1.209994    5.24704    -1.96917
H(Fragment=1)                 -1.209739    5.247086    -1.969176
C(Fragment=1)                 -2.858545    6.147638    -0.090942
C(Fragment=1)                 -5.21907    4.595819    0.16923
C(Fragment=1)                 -3.416398    5.886148    1.165813
C(Fragment=1)                 -3.620567    5.796786    -1.211861
C(Fragment=1)                 -4.764551    5.023261    -1.085279
C(Fragment=1)                 -4.582611    5.141022    1.292225
H(Fragment=1)                 -2.877156    6.172382    2.064473
H(Fragment=1)                 -3.265482    6.050901    -2.206456
H(Fragment=1)                 -5.242703    4.658844    -1.988959
H(Fragment=1)                 -4.944444    4.906834    2.289019
C(Fragment=1)                 -6.110477    3.406563    0.265294
C(Fragment=1)                 -7.04318    0.734751    0.112493
C(Fragment=1)                 -6.914325    2.978794    -0.801426
C(Fragment=1)                 -5.946668    2.517455    1.334856
C(Fragment=1)                 -6.412094    1.212833    1.265192
C(Fragment=1)                 -7.359014    1.664167    -0.884651
H(Fragment=1)                 -7.139615    3.658766    -1.617992
H(Fragment=1)                 -5.333355    2.798272    2.184655
H(Fragment=1)                 -6.156888    0.5173    2.059633
H(Fragment=1)                 -7.902651    1.33942    -1.76805
C(Fragment=1)                 -7.043213    -0.734457    -0.112566
C(Fragment=1)                 -6.110631    -3.406313    -0.265339
C(Fragment=1)                 -7.359114    -1.663857    0.884571
C(Fragment=1)                 -6.412118    -1.212571    -1.265248
C(Fragment=1)                 -5.946751    -2.517214    -1.334898
C(Fragment=1)                 -6.914483    -2.978505    0.801361
H(Fragment=1)                 -7.902757    -1.339083    1.767957
H(Fragment=1)                 -6.156858    -0.51705    -2.059683
H(Fragment=1)                 -5.333426    -2.798061    -2.184678
H(Fragment=1)                 -7.139821    -3.658465    1.617925
C(Fragment=1)                 -5.219279    -4.595606    -0.169247
C(Fragment=1)                 -2.858823    -6.147521    0.090987
C(Fragment=1)                 -4.76479    -5.023038    1.085279
C(Fragment=1)                 -4.582832    -5.140863    -1.29222
C(Fragment=1)                 -3.416653    -5.88604    -1.165778
C(Fragment=1)                 -3.620841    -5.796604    1.211891
H(Fragment=1)                 -5.24294    -4.658577    1.988943
H(Fragment=1)                 -4.944644    -4.906682    -2.289024
H(Fragment=1)                 -2.877416    -6.172317    -2.064427
H(Fragment=1)                 -3.265775    -6.050711    2.206495
C(Fragment=2)                 -1.80471528    3.02789826    0.29662047
C(Fragment=2)                 -1.88419774    2.51845405    1.65214846
C(Fragment=2)                 -0.74821025    2.47804574    2.44530015
C(Fragment=2)                 0.5191566    2.9447854    1.91960407
C(Fragment=2)                 0.59527897    3.43415322    0.62389789
C(Fragment=2)                 -0.59369535    3.47696624    -0.20503945
C(Fragment=2)                 -2.68311635    2.22907822    -0.53478082
C(Fragment=2)                 -3.30392437    1.22688638    0.30590991
C(Fragment=2)                 -2.81122536    1.40384672    1.65717699
C(Fragment=2)                 -2.5598488    0.30025635    2.45385203
C(Fragment=2)                 -0.48777199    1.32200628    3.28061426
C(Fragment=2)                 1.56316453    2.07891244    2.43025997
C(Fragment=2)                 2.63820276    1.73840587    1.62167658
C(Fragment=2)                 2.71704262    2.24873064    0.26749458
C(Fragment=2)                 1.71854528    3.07733261    -0.22008189
C(Fragment=2)                 1.224309    2.89970864    -1.5709058
C(Fragment=2)                 -0.20425254    3.14771408    -1.56301637
C(Fragment=2)                 -1.04397799    2.38367604    -2.35710267
C(Fragment=2)                 -2.31179217    1.91616429    -1.831858
C(Fragment=2)                 -3.52794439    -0.04798548    -0.18692959
C(Fragment=2)                 -3.13872568    -0.37762949    -1.5440142
C(Fragment=2)                 -2.54536609    0.58289271    -2.34826011
C(Fragment=2)                 -1.42123395    0.22557178    -3.19224215
C(Fragment=2)                 -0.49269876    1.33878661    -3.19638289
C(Fragment=2)                 0.87182856    1.0998728    -3.20067219
C(Fragment=2)                 1.75109634    1.89820412    -2.3715092
C(Fragment=2)                 2.79818055    1.03368165    -1.86621173
C(Fragment=2)                 3.26963589    1.20412459    -0.57357254
C(Fragment=2)                 0.94168508    1.07555665    3.27139161
C(Fragment=2)                 2.67700713    -2.22523613    0.60692573
C(Fragment=2)                 2.30417625    -1.91091807    1.90087909
C(Fragment=2)                 1.04155621    -2.38144339    2.42834621
C(Fragment=2)                 0.20375596    -3.14815796    1.63693008
C(Fragment=2)                 0.59233293    -3.4769098    0.27895542
C(Fragment=2)                 1.8843726    -2.51773399    -1.57867567
C(Fragment=2)                 2.81422183    -1.40423578    -1.58460331
C(Fragment=2)                 3.30150172    -1.22466535    -0.23243033
C(Fragment=2)                 3.52920831    0.04858545    0.26174384
C(Fragment=2)                 3.13912377    0.37872979    1.61883071
C(Fragment=2)                 2.54098854    -0.58005127    2.42040049
C(Fragment=2)                 0.49217161    -1.34129824    3.27386359
C(Fragment=2)                 -0.87216217    -1.10406032    3.28082757
C(Fragment=2)                 -1.75120585    -1.90199979    2.45077227
C(Fragment=2)                 -1.22570111    -2.90170833    1.64615273
C(Fragment=2)                 -1.71840012    -3.07866867    0.29488565
C(Fragment=2)                 -0.59510412    -3.43343316    -0.55042509
C(Fragment=2)                 -0.51923468    -2.9465017    -1.84614404
C(Fragment=2)                 0.74835628    -2.47937019    -2.37273243
C(Fragment=2)                 2.5665624    -0.30019872    -2.38351068
C(Fragment=2)                 1.37582671    -0.25844118    -3.21111252
C(Fragment=2)                 0.48727541    -1.32245017    -3.20670056
C(Fragment=2)                 -0.94086849    -1.07572876    -3.19702877
C(Fragment=2)                 -1.56321378    -2.07858423    -2.35589486
C(Fragment=2)                 -2.63671473    -1.73741404    -1.54775465
C(Fragment=2)                 -2.7157787    -2.24813066    -0.19268033
C(Fragment=2)                 -3.26641619    -1.20413341    0.64748995
C(Fragment=2)                 -2.79213925    -1.03479958    1.93923003
C(Fragment=2)                 1.42096061    -0.22563543    3.26749957
C(Fragment=2)                 -1.37154504    0.256291    3.28099424
C(Fragment=2)                 1.80357696    -3.02744996    -0.22359682


