%nprocshared=8
%mem=10GB
%chk=10cpp_c60_step_5.chk
#p rb3lyp/6-31g(d) counterpoise=2

/Users/wangzhe/Desktop/10cpp_c60/10cpp_c60_step_5.gjf

0 1 0 1 0 1
H(Fragment=1)                 2.877438    6.172261    2.064486
C(Fragment=1)                 3.416667    5.886009    1.165824
C(Fragment=1)                 4.764778    5.023065    -1.085271
C(Fragment=1)                 4.58285    5.140833    1.292233
C(Fragment=1)                 2.858824    6.147524    -0.090928
C(Fragment=1)                 3.620828    5.796636    -1.21185
C(Fragment=1)                 5.219284    4.595605    0.169239
H(Fragment=1)                 4.944673    4.906622    2.289027
H(Fragment=1)                 3.265748    6.050764    -2.206444
H(Fragment=1)                 5.242915    4.658623    -1.98895
C(Fragment=1)                 6.110636    3.40631    0.265296
C(Fragment=1)                 7.043214    0.734456    0.112487
C(Fragment=1)                 5.946782    2.517207    1.334854
C(Fragment=1)                 6.914462    2.978508    -0.801427
C(Fragment=1)                 7.35909    1.663861    -0.884654
C(Fragment=1)                 6.412149    1.212564    1.265187
H(Fragment=1)                 5.33348    2.798052    2.184652
H(Fragment=1)                 7.139781    3.658473    -1.617992
H(Fragment=1)                 7.902712    1.339091    -1.768055
H(Fragment=1)                 6.156911    0.51704    2.059626
C(Fragment=1)                 7.043179    -0.734751    -0.112574
C(Fragment=1)                 6.110471    -3.406564    -0.265345
C(Fragment=1)                 6.412062    -1.212836    -1.265255
C(Fragment=1)                 7.35904    -1.664166    0.884562
C(Fragment=1)                 6.914348    -2.978792    0.801352
C(Fragment=1)                 5.946634    -2.517458    -1.334904
H(Fragment=1)                 6.156833    -0.517304    -2.05969
H(Fragment=1)                 7.9027    -1.339418    1.767947
H(Fragment=1)                 7.139658    -3.658762    1.617915
H(Fragment=1)                 5.333296    -2.798273    -2.184685
C(Fragment=1)                 5.219063    -4.595818    -0.169244
C(Fragment=1)                 2.858545    -6.147635    0.090999
C(Fragment=1)                 4.764565    -5.023235    1.085281
C(Fragment=1)                 4.582591    -5.141054    -1.292216
C(Fragment=1)                 3.416383    -5.886181    -1.165769
C(Fragment=1)                 3.620581    -5.796755    1.211898
H(Fragment=1)                 5.24273    -4.658797    1.988945
H(Fragment=1)                 4.944414    -4.906899    -2.289022
H(Fragment=1)                 2.877132    -6.172443    -2.064415
H(Fragment=1)                 3.265512    -6.050848    2.206505
C(Fragment=1)                 1.420073    -6.496395    0.226354
C(Fragment=1)                 -1.420366    -6.496337    0.226346
C(Fragment=1)                 0.691529    -5.855387    1.235231
C(Fragment=1)                 0.69625    -7.238346    -0.715878
C(Fragment=1)                 -0.696568    -7.238316    -0.715883
C(Fragment=1)                 -0.691802    -5.855361    1.235228
H(Fragment=1)                 1.209739    -5.247013    1.969205
H(Fragment=1)                 1.224838    -7.791964    -1.48749
H(Fragment=1)                 -1.225173    -7.791914    -1.487497
H(Fragment=1)                 -1.209992    -5.246966    1.969201
H(Fragment=1)                 1.225173    7.791854    1.487627
C(Fragment=1)                 0.696568    7.238283    0.715993
C(Fragment=1)                 -0.691528    5.855429    -1.235175
C(Fragment=1)                 -0.69625    7.238312    0.715988
C(Fragment=1)                 1.420365    6.49634    -0.226265
C(Fragment=1)                 0.691803    5.855403    -1.235172
C(Fragment=1)                 -1.420072    6.496397    -0.226274
H(Fragment=1)                 -1.224839    7.791903    1.487619
H(Fragment=1)                 1.209994    5.24704    -1.96917
H(Fragment=1)                 -1.209739    5.247086    -1.969176
C(Fragment=1)                 -2.858545    6.147638    -0.090942
C(Fragment=1)                 -5.21907    4.595819    0.16923
C(Fragment=1)                 -3.416398    5.886148    1.165813
C(Fragment=1)                 -3.620567    5.796786    -1.211861
C(Fragment=1)                 -4.764551    5.023261    -1.085279
C(Fragment=1)                 -4.582611    5.141022    1.292225
H(Fragment=1)                 -2.877156    6.172382    2.064473
H(Fragment=1)                 -3.265482    6.050901    -2.206456
H(Fragment=1)                 -5.242703    4.658844    -1.988959
H(Fragment=1)                 -4.944444    4.906834    2.289019
C(Fragment=1)                 -6.110477    3.406563    0.265294
C(Fragment=1)                 -7.04318    0.734751    0.112493
C(Fragment=1)                 -6.914325    2.978794    -0.801426
C(Fragment=1)                 -5.946668    2.517455    1.334856
C(Fragment=1)                 -6.412094    1.212833    1.265192
C(Fragment=1)                 -7.359014    1.664167    -0.884651
H(Fragment=1)                 -7.139615    3.658766    -1.617992
H(Fragment=1)                 -5.333355    2.798272    2.184655
H(Fragment=1)                 -6.156888    0.5173    2.059633
H(Fragment=1)                 -7.902651    1.33942    -1.76805
C(Fragment=1)                 -7.043213    -0.734457    -0.112566
C(Fragment=1)                 -6.110631    -3.406313    -0.265339
C(Fragment=1)                 -7.359114    -1.663857    0.884571
C(Fragment=1)                 -6.412118    -1.212571    -1.265248
C(Fragment=1)                 -5.946751    -2.517214    -1.334898
C(Fragment=1)                 -6.914483    -2.978505    0.801361
H(Fragment=1)                 -7.902757    -1.339083    1.767957
H(Fragment=1)                 -6.156858    -0.51705    -2.059683
H(Fragment=1)                 -5.333426    -2.798061    -2.184678
H(Fragment=1)                 -7.139821    -3.658465    1.617925
C(Fragment=1)                 -5.219279    -4.595606    -0.169247
C(Fragment=1)                 -2.858823    -6.147521    0.090987
C(Fragment=1)                 -4.76479    -5.023038    1.085279
C(Fragment=1)                 -4.582832    -5.140863    -1.29222
C(Fragment=1)                 -3.416653    -5.88604    -1.165778
C(Fragment=1)                 -3.620841    -5.796604    1.211891
H(Fragment=1)                 -5.24294    -4.658577    1.988943
H(Fragment=1)                 -4.944644    -4.906682    -2.289024
H(Fragment=1)                 -2.877416    -6.172317    -2.064427
H(Fragment=1)                 -3.265775    -6.050711    2.206495
C(Fragment=2)                 -1.8049546    3.02893643    6.94662039
C(Fragment=2)                 -1.88443706    2.51949222    8.30214838
C(Fragment=2)                 -0.74844957    2.47908391    9.09530007
C(Fragment=2)                 0.51891728    2.94582357    8.56960399
C(Fragment=2)                 0.59503965    3.43519139    7.27389781
C(Fragment=2)                 -0.59393467    3.47800441    6.44496047
C(Fragment=2)                 -2.68335567    2.23011639    6.1152191
C(Fragment=2)                 -3.30416369    1.22792455    6.95590983
C(Fragment=2)                 -2.81146468    1.40488489    8.30717691
C(Fragment=2)                 -2.56008812    0.30129452    9.10385195
C(Fragment=2)                 -0.48801131    1.32304445    9.93061418
C(Fragment=2)                 1.56292521    2.07995061    9.08025989
C(Fragment=2)                 2.63796344    1.73944404    8.2716765
C(Fragment=2)                 2.7168033    2.24976881    6.9174945
C(Fragment=2)                 1.71830596    3.07837078    6.42991803
C(Fragment=2)                 1.22406968    2.90074681    5.07909412
C(Fragment=2)                 -0.20449186    3.14875225    5.08698355
C(Fragment=2)                 -1.04421731    2.38471421    4.29289725
C(Fragment=2)                 -2.31203149    1.91720246    4.81814192
C(Fragment=2)                 -3.52818371    -0.04694731    6.46307033
C(Fragment=2)                 -3.138965    -0.37659132    5.10598572
C(Fragment=2)                 -2.54560541    0.58393088    4.30173981
C(Fragment=2)                 -1.42147327    0.22660995    3.45775777
C(Fragment=2)                 -0.49293808    1.33982478    3.45361703
C(Fragment=2)                 0.87158924    1.10091097    3.44932773
C(Fragment=2)                 1.75085702    1.89924229    4.27849072
C(Fragment=2)                 2.79794123    1.03471982    4.78378819
C(Fragment=2)                 3.26939657    1.20516276    6.07642738
C(Fragment=2)                 0.94144576    1.07659482    9.92139153
C(Fragment=2)                 2.67676781    -2.22419796    7.25692565
C(Fragment=2)                 2.30393693    -1.9098799    8.55087901
C(Fragment=2)                 1.04131689    -2.38040522    9.07834613
C(Fragment=2)                 0.20351664    -3.14711979    8.28693
C(Fragment=2)                 0.59209361    -3.47587163    6.92895534
C(Fragment=2)                 1.88413328    -2.51669582    5.07132425
C(Fragment=2)                 2.81398251    -1.40319761    5.06539661
C(Fragment=2)                 3.3012624    -1.22362718    6.41756959
C(Fragment=2)                 3.52896899    0.04962362    6.91174376
C(Fragment=2)                 3.13888445    0.37976796    8.26883063
C(Fragment=2)                 2.54074922    -0.5790131    9.07040041
C(Fragment=2)                 0.49193229    -1.34026007    9.92386351
C(Fragment=2)                 -0.87240149    -1.10302215    9.93082749
C(Fragment=2)                 -1.75144517    -1.90096162    9.10077219
C(Fragment=2)                 -1.22594043    -2.90067016    8.29615265
C(Fragment=2)                 -1.71863944    -3.0776305    6.94488557
C(Fragment=2)                 -0.59534344    -3.43239499    6.09957483
C(Fragment=2)                 -0.519474    -2.94546353    4.80385588
C(Fragment=2)                 0.74811696    -2.47833202    4.27726749
C(Fragment=2)                 2.56632308    -0.29916055    4.26648924
C(Fragment=2)                 1.37558739    -0.25740301    3.4388874
C(Fragment=2)                 0.48703609    -1.321412    3.44329936
C(Fragment=2)                 -0.94110781    -1.07469059    3.45297115
C(Fragment=2)                 -1.5634531    -2.07754606    4.29410506
C(Fragment=2)                 -2.63695405    -1.73637587    5.10224527
C(Fragment=2)                 -2.71601802    -2.24709249    6.45731959
C(Fragment=2)                 -3.26665551    -1.20309524    7.29748987
C(Fragment=2)                 -2.79237857    -1.03376141    8.58922995
C(Fragment=2)                 1.42072129    -0.22459726    9.91749949
C(Fragment=2)                 -1.37178436    0.25732917    9.93099416
C(Fragment=2)                 1.80333764    -3.02641179    6.4264031


