%nprocshared=8
%mem=10GB
%chk=10cpp_c60_step_9.chk
#p rb3lyp/6-31g(d) counterpoise=2

/Users/wangzhe/Desktop/10cpp_c60/10cpp_c60_step_9.gjf

0 1 0 1 0 1
H(Fragment=1)                 2.877438    6.172261    2.064486
C(Fragment=1)                 3.416667    5.886009    1.165824
C(Fragment=1)                 4.764778    5.023065    -1.085271
C(Fragment=1)                 4.58285    5.140833    1.292233
C(Fragment=1)                 2.858824    6.147524    -0.090928
C(Fragment=1)                 3.620828    5.796636    -1.21185
C(Fragment=1)                 5.219284    4.595605    0.169239
H(Fragment=1)                 4.944673    4.906622    2.289027
H(Fragment=1)                 3.265748    6.050764    -2.206444
H(Fragment=1)                 5.242915    4.658623    -1.98895
C(Fragment=1)                 6.110636    3.40631    0.265296
C(Fragment=1)                 7.043214    0.734456    0.112487
C(Fragment=1)                 5.946782    2.517207    1.334854
C(Fragment=1)                 6.914462    2.978508    -0.801427
C(Fragment=1)                 7.35909    1.663861    -0.884654
C(Fragment=1)                 6.412149    1.212564    1.265187
H(Fragment=1)                 5.33348    2.798052    2.184652
H(Fragment=1)                 7.139781    3.658473    -1.617992
H(Fragment=1)                 7.902712    1.339091    -1.768055
H(Fragment=1)                 6.156911    0.51704    2.059626
C(Fragment=1)                 7.043179    -0.734751    -0.112574
C(Fragment=1)                 6.110471    -3.406564    -0.265345
C(Fragment=1)                 6.412062    -1.212836    -1.265255
C(Fragment=1)                 7.35904    -1.664166    0.884562
C(Fragment=1)                 6.914348    -2.978792    0.801352
C(Fragment=1)                 5.946634    -2.517458    -1.334904
H(Fragment=1)                 6.156833    -0.517304    -2.05969
H(Fragment=1)                 7.9027    -1.339418    1.767947
H(Fragment=1)                 7.139658    -3.658762    1.617915
H(Fragment=1)                 5.333296    -2.798273    -2.184685
C(Fragment=1)                 5.219063    -4.595818    -0.169244
C(Fragment=1)                 2.858545    -6.147635    0.090999
C(Fragment=1)                 4.764565    -5.023235    1.085281
C(Fragment=1)                 4.582591    -5.141054    -1.292216
C(Fragment=1)                 3.416383    -5.886181    -1.165769
C(Fragment=1)                 3.620581    -5.796755    1.211898
H(Fragment=1)                 5.24273    -4.658797    1.988945
H(Fragment=1)                 4.944414    -4.906899    -2.289022
H(Fragment=1)                 2.877132    -6.172443    -2.064415
H(Fragment=1)                 3.265512    -6.050848    2.206505
C(Fragment=1)                 1.420073    -6.496395    0.226354
C(Fragment=1)                 -1.420366    -6.496337    0.226346
C(Fragment=1)                 0.691529    -5.855387    1.235231
C(Fragment=1)                 0.69625    -7.238346    -0.715878
C(Fragment=1)                 -0.696568    -7.238316    -0.715883
C(Fragment=1)                 -0.691802    -5.855361    1.235228
H(Fragment=1)                 1.209739    -5.247013    1.969205
H(Fragment=1)                 1.224838    -7.791964    -1.48749
H(Fragment=1)                 -1.225173    -7.791914    -1.487497
H(Fragment=1)                 -1.209992    -5.246966    1.969201
H(Fragment=1)                 1.225173    7.791854    1.487627
C(Fragment=1)                 0.696568    7.238283    0.715993
C(Fragment=1)                 -0.691528    5.855429    -1.235175
C(Fragment=1)                 -0.69625    7.238312    0.715988
C(Fragment=1)                 1.420365    6.49634    -0.226265
C(Fragment=1)                 0.691803    5.855403    -1.235172
C(Fragment=1)                 -1.420072    6.496397    -0.226274
H(Fragment=1)                 -1.224839    7.791903    1.487619
H(Fragment=1)                 1.209994    5.24704    -1.96917
H(Fragment=1)                 -1.209739    5.247086    -1.969176
C(Fragment=1)                 -2.858545    6.147638    -0.090942
C(Fragment=1)                 -5.21907    4.595819    0.16923
C(Fragment=1)                 -3.416398    5.886148    1.165813
C(Fragment=1)                 -3.620567    5.796786    -1.211861
C(Fragment=1)                 -4.764551    5.023261    -1.085279
C(Fragment=1)                 -4.582611    5.141022    1.292225
H(Fragment=1)                 -2.877156    6.172382    2.064473
H(Fragment=1)                 -3.265482    6.050901    -2.206456
H(Fragment=1)                 -5.242703    4.658844    -1.988959
H(Fragment=1)                 -4.944444    4.906834    2.289019
C(Fragment=1)                 -6.110477    3.406563    0.265294
C(Fragment=1)                 -7.04318    0.734751    0.112493
C(Fragment=1)                 -6.914325    2.978794    -0.801426
C(Fragment=1)                 -5.946668    2.517455    1.334856
C(Fragment=1)                 -6.412094    1.212833    1.265192
C(Fragment=1)                 -7.359014    1.664167    -0.884651
H(Fragment=1)                 -7.139615    3.658766    -1.617992
H(Fragment=1)                 -5.333355    2.798272    2.184655
H(Fragment=1)                 -6.156888    0.5173    2.059633
H(Fragment=1)                 -7.902651    1.33942    -1.76805
C(Fragment=1)                 -7.043213    -0.734457    -0.112566
C(Fragment=1)                 -6.110631    -3.406313    -0.265339
C(Fragment=1)                 -7.359114    -1.663857    0.884571
C(Fragment=1)                 -6.412118    -1.212571    -1.265248
C(Fragment=1)                 -5.946751    -2.517214    -1.334898
C(Fragment=1)                 -6.914483    -2.978505    0.801361
H(Fragment=1)                 -7.902757    -1.339083    1.767957
H(Fragment=1)                 -6.156858    -0.51705    -2.059683
H(Fragment=1)                 -5.333426    -2.798061    -2.184678
H(Fragment=1)                 -7.139821    -3.658465    1.617925
C(Fragment=1)                 -5.219279    -4.595606    -0.169247
C(Fragment=1)                 -2.858823    -6.147521    0.090987
C(Fragment=1)                 -4.76479    -5.023038    1.085279
C(Fragment=1)                 -4.582832    -5.140863    -1.29222
C(Fragment=1)                 -3.416653    -5.88604    -1.165778
C(Fragment=1)                 -3.620841    -5.796604    1.211891
H(Fragment=1)                 -5.24294    -4.658577    1.988943
H(Fragment=1)                 -4.944644    -4.906682    -2.289024
H(Fragment=1)                 -2.877416    -6.172317    -2.064427
H(Fragment=1)                 -3.265775    -6.050711    2.206495
C(Fragment=2)                 -1.80476314    3.0281059    1.62662045
C(Fragment=2)                 -1.8842456    2.51866169    2.98214844
C(Fragment=2)                 -0.74825811    2.47825338    3.77530013
C(Fragment=2)                 0.51910874    2.94499304    3.24960405
C(Fragment=2)                 0.59523111    3.43436086    1.95389787
C(Fragment=2)                 -0.59374321    3.47717388    1.12496053
C(Fragment=2)                 -2.68316421    2.22928586    0.79521916
C(Fragment=2)                 -3.30397223    1.22709402    1.63590989
C(Fragment=2)                 -2.81127322    1.40405436    2.98717697
C(Fragment=2)                 -2.55989666    0.30046399    3.78385201
C(Fragment=2)                 -0.48781985    1.32221392    4.61061424
C(Fragment=2)                 1.56311667    2.07912008    3.76025995
C(Fragment=2)                 2.6381549    1.73861351    2.95167656
C(Fragment=2)                 2.71699476    2.24893828    1.59749456
C(Fragment=2)                 1.71849742    3.07754025    1.10991809
C(Fragment=2)                 1.22426114    2.89991628    -0.24090582
C(Fragment=2)                 -0.2043004    3.14792172    -0.23301639
C(Fragment=2)                 -1.04402585    2.38388368    -1.02710269
C(Fragment=2)                 -2.31184003    1.91637193    -0.50185802
C(Fragment=2)                 -3.52799225    -0.04777784    1.14307039
C(Fragment=2)                 -3.13877354    -0.37742185    -0.21401422
C(Fragment=2)                 -2.54541395    0.58310035    -1.01826013
C(Fragment=2)                 -1.42128181    0.22577942    -1.86224217
C(Fragment=2)                 -0.49274662    1.33899425    -1.86638291
C(Fragment=2)                 0.8717807    1.10008044    -1.87067221
C(Fragment=2)                 1.75104848    1.89841176    -1.04150922
C(Fragment=2)                 2.79813269    1.03388929    -0.53621175
C(Fragment=2)                 3.26958803    1.20433223    0.75642744
C(Fragment=2)                 0.94163722    1.07576429    4.60139159
C(Fragment=2)                 2.67695927    -2.22502849    1.93692571
C(Fragment=2)                 2.30412839    -1.91071043    3.23087907
C(Fragment=2)                 1.04150835    -2.38123575    3.75834619
C(Fragment=2)                 0.2037081    -3.14795032    2.96693006
C(Fragment=2)                 0.59228507    -3.47670216    1.6089554
C(Fragment=2)                 1.88432474    -2.51752635    -0.24867569
C(Fragment=2)                 2.81417397    -1.40402814    -0.25460333
C(Fragment=2)                 3.30145386    -1.22445771    1.09756965
C(Fragment=2)                 3.52916045    0.04879309    1.59174382
C(Fragment=2)                 3.13907591    0.37893743    2.94883069
C(Fragment=2)                 2.54094068    -0.57984363    3.75040047
C(Fragment=2)                 0.49212375    -1.3410906    4.60386357
C(Fragment=2)                 -0.87221003    -1.10385268    4.61082755
C(Fragment=2)                 -1.75125371    -1.90179215    3.78077225
C(Fragment=2)                 -1.22574897    -2.90150069    2.97615271
C(Fragment=2)                 -1.71844798    -3.07846103    1.62488563
C(Fragment=2)                 -0.59515198    -3.43322552    0.77957489
C(Fragment=2)                 -0.51928254    -2.94629406    -0.51614406
C(Fragment=2)                 0.74830842    -2.47916255    -1.04273245
C(Fragment=2)                 2.56651454    -0.29999108    -1.0535107
C(Fragment=2)                 1.37577885    -0.25823354    -1.88111254
C(Fragment=2)                 0.48722755    -1.32224253    -1.87670058
C(Fragment=2)                 -0.94091635    -1.07552112    -1.86702879
C(Fragment=2)                 -1.56326164    -2.07837659    -1.02589488
C(Fragment=2)                 -2.63676259    -1.7372064    -0.21775467
C(Fragment=2)                 -2.71582656    -2.24792302    1.13731965
C(Fragment=2)                 -3.26646405    -1.20392577    1.97748993
C(Fragment=2)                 -2.79218711    -1.03459194    3.26923001
C(Fragment=2)                 1.42091275    -0.22542779    4.59749955
C(Fragment=2)                 -1.3715929    0.25649864    4.61099422
C(Fragment=2)                 1.8035291    -3.02724232    1.10640316


