%nprocshared=8
%mem=10GB
%chk=10cpp_c60_step_2.chk
#p rb3lyp/6-31g(d) counterpoise=2

/Users/wangzhe/Desktop/10cpp_c60/10cpp_c60_step_2.gjf

0 1 0 1 0 1
H(Fragment=1)                 2.877438    6.172261    2.064486
C(Fragment=1)                 3.416667    5.886009    1.165824
C(Fragment=1)                 4.764778    5.023065    -1.085271
C(Fragment=1)                 4.58285    5.140833    1.292233
C(Fragment=1)                 2.858824    6.147524    -0.090928
C(Fragment=1)                 3.620828    5.796636    -1.21185
C(Fragment=1)                 5.219284    4.595605    0.169239
H(Fragment=1)                 4.944673    4.906622    2.289027
H(Fragment=1)                 3.265748    6.050764    -2.206444
H(Fragment=1)                 5.242915    4.658623    -1.98895
C(Fragment=1)                 6.110636    3.40631    0.265296
C(Fragment=1)                 7.043214    0.734456    0.112487
C(Fragment=1)                 5.946782    2.517207    1.334854
C(Fragment=1)                 6.914462    2.978508    -0.801427
C(Fragment=1)                 7.35909    1.663861    -0.884654
C(Fragment=1)                 6.412149    1.212564    1.265187
H(Fragment=1)                 5.33348    2.798052    2.184652
H(Fragment=1)                 7.139781    3.658473    -1.617992
H(Fragment=1)                 7.902712    1.339091    -1.768055
H(Fragment=1)                 6.156911    0.51704    2.059626
C(Fragment=1)                 7.043179    -0.734751    -0.112574
C(Fragment=1)                 6.110471    -3.406564    -0.265345
C(Fragment=1)                 6.412062    -1.212836    -1.265255
C(Fragment=1)                 7.35904    -1.664166    0.884562
C(Fragment=1)                 6.914348    -2.978792    0.801352
C(Fragment=1)                 5.946634    -2.517458    -1.334904
H(Fragment=1)                 6.156833    -0.517304    -2.05969
H(Fragment=1)                 7.9027    -1.339418    1.767947
H(Fragment=1)                 7.139658    -3.658762    1.617915
H(Fragment=1)                 5.333296    -2.798273    -2.184685
C(Fragment=1)                 5.219063    -4.595818    -0.169244
C(Fragment=1)                 2.858545    -6.147635    0.090999
C(Fragment=1)                 4.764565    -5.023235    1.085281
C(Fragment=1)                 4.582591    -5.141054    -1.292216
C(Fragment=1)                 3.416383    -5.886181    -1.165769
C(Fragment=1)                 3.620581    -5.796755    1.211898
H(Fragment=1)                 5.24273    -4.658797    1.988945
H(Fragment=1)                 4.944414    -4.906899    -2.289022
H(Fragment=1)                 2.877132    -6.172443    -2.064415
H(Fragment=1)                 3.265512    -6.050848    2.206505
C(Fragment=1)                 1.420073    -6.496395    0.226354
C(Fragment=1)                 -1.420366    -6.496337    0.226346
C(Fragment=1)                 0.691529    -5.855387    1.235231
C(Fragment=1)                 0.69625    -7.238346    -0.715878
C(Fragment=1)                 -0.696568    -7.238316    -0.715883
C(Fragment=1)                 -0.691802    -5.855361    1.235228
H(Fragment=1)                 1.209739    -5.247013    1.969205
H(Fragment=1)                 1.224838    -7.791964    -1.48749
H(Fragment=1)                 -1.225173    -7.791914    -1.487497
H(Fragment=1)                 -1.209992    -5.246966    1.969201
H(Fragment=1)                 1.225173    7.791854    1.487627
C(Fragment=1)                 0.696568    7.238283    0.715993
C(Fragment=1)                 -0.691528    5.855429    -1.235175
C(Fragment=1)                 -0.69625    7.238312    0.715988
C(Fragment=1)                 1.420365    6.49634    -0.226265
C(Fragment=1)                 0.691803    5.855403    -1.235172
C(Fragment=1)                 -1.420072    6.496397    -0.226274
H(Fragment=1)                 -1.224839    7.791903    1.487619
H(Fragment=1)                 1.209994    5.24704    -1.96917
H(Fragment=1)                 -1.209739    5.247086    -1.969176
C(Fragment=1)                 -2.858545    6.147638    -0.090942
C(Fragment=1)                 -5.21907    4.595819    0.16923
C(Fragment=1)                 -3.416398    5.886148    1.165813
C(Fragment=1)                 -3.620567    5.796786    -1.211861
C(Fragment=1)                 -4.764551    5.023261    -1.085279
C(Fragment=1)                 -4.582611    5.141022    1.292225
H(Fragment=1)                 -2.877156    6.172382    2.064473
H(Fragment=1)                 -3.265482    6.050901    -2.206456
H(Fragment=1)                 -5.242703    4.658844    -1.988959
H(Fragment=1)                 -4.944444    4.906834    2.289019
C(Fragment=1)                 -6.110477    3.406563    0.265294
C(Fragment=1)                 -7.04318    0.734751    0.112493
C(Fragment=1)                 -6.914325    2.978794    -0.801426
C(Fragment=1)                 -5.946668    2.517455    1.334856
C(Fragment=1)                 -6.412094    1.212833    1.265192
C(Fragment=1)                 -7.359014    1.664167    -0.884651
H(Fragment=1)                 -7.139615    3.658766    -1.617992
H(Fragment=1)                 -5.333355    2.798272    2.184655
H(Fragment=1)                 -6.156888    0.5173    2.059633
H(Fragment=1)                 -7.902651    1.33942    -1.76805
C(Fragment=1)                 -7.043213    -0.734457    -0.112566
C(Fragment=1)                 -6.110631    -3.406313    -0.265339
C(Fragment=1)                 -7.359114    -1.663857    0.884571
C(Fragment=1)                 -6.412118    -1.212571    -1.265248
C(Fragment=1)                 -5.946751    -2.517214    -1.334898
C(Fragment=1)                 -6.914483    -2.978505    0.801361
H(Fragment=1)                 -7.902757    -1.339083    1.767957
H(Fragment=1)                 -6.156858    -0.51705    -2.059683
H(Fragment=1)                 -5.333426    -2.798061    -2.184678
H(Fragment=1)                 -7.139821    -3.658465    1.617925
C(Fragment=1)                 -5.219279    -4.595606    -0.169247
C(Fragment=1)                 -2.858823    -6.147521    0.090987
C(Fragment=1)                 -4.76479    -5.023038    1.085279
C(Fragment=1)                 -4.582832    -5.140863    -1.29222
C(Fragment=1)                 -3.416653    -5.88604    -1.165778
C(Fragment=1)                 -3.620841    -5.796604    1.211891
H(Fragment=1)                 -5.24294    -4.658577    1.988943
H(Fragment=1)                 -4.944644    -4.906682    -2.289024
H(Fragment=1)                 -2.877416    -6.172317    -2.064427
H(Fragment=1)                 -3.265775    -6.050711    2.206495
C(Fragment=2)                 -1.80509819    3.02955932    10.93662033
C(Fragment=2)                 -1.88458065    2.52011511    12.29214832
C(Fragment=2)                 -0.74859316    2.4797068    13.08530001
C(Fragment=2)                 0.51877369    2.94644646    12.55960393
C(Fragment=2)                 0.59489606    3.43581428    11.26389775
C(Fragment=2)                 -0.59407826    3.4786273    10.43496041
C(Fragment=2)                 -2.68349926    2.23073928    10.10521904
C(Fragment=2)                 -3.30430728    1.22854744    10.94590977
C(Fragment=2)                 -2.81160827    1.40550778    12.29717685
C(Fragment=2)                 -2.56023171    0.30191741    13.09385189
C(Fragment=2)                 -0.4881549    1.32366734    13.92061412
C(Fragment=2)                 1.56278162    2.0805735    13.07025983
C(Fragment=2)                 2.63781985    1.74006693    12.26167644
C(Fragment=2)                 2.71665971    2.2503917    10.90749444
C(Fragment=2)                 1.71816237    3.07899367    10.41991797
C(Fragment=2)                 1.22392609    2.9013697    9.06909406
C(Fragment=2)                 -0.20463545    3.14937514    9.07698349
C(Fragment=2)                 -1.0443609    2.3853371    8.28289719
C(Fragment=2)                 -2.31217508    1.91782535    8.80814186
C(Fragment=2)                 -3.5283273    -0.04632442    10.45307027
C(Fragment=2)                 -3.13910859    -0.37596843    9.09598566
C(Fragment=2)                 -2.545749    0.58455377    8.29173975
C(Fragment=2)                 -1.42161686    0.22723284    7.44775771
C(Fragment=2)                 -0.49308167    1.34044767    7.44361697
C(Fragment=2)                 0.87144565    1.10153386    7.43932767
C(Fragment=2)                 1.75071343    1.89986518    8.26849066
C(Fragment=2)                 2.79779764    1.03534271    8.77378813
C(Fragment=2)                 3.26925298    1.20578565    10.06642732
C(Fragment=2)                 0.94130217    1.07721771    13.91139147
C(Fragment=2)                 2.67662422    -2.22357507    11.24692559
C(Fragment=2)                 2.30379334    -1.90925701    12.54087895
C(Fragment=2)                 1.0411733    -2.37978233    13.06834607
C(Fragment=2)                 0.20337305    -3.1464969    12.27692994
C(Fragment=2)                 0.59195002    -3.47524874    10.91895528
C(Fragment=2)                 1.88398969    -2.51607293    9.06132419
C(Fragment=2)                 2.81383892    -1.40257472    9.05539655
C(Fragment=2)                 3.30111881    -1.22300429    10.40756953
C(Fragment=2)                 3.5288254    0.05024651    10.9017437
C(Fragment=2)                 3.13874086    0.38039085    12.25883057
C(Fragment=2)                 2.54060563    -0.57839021    13.06040035
C(Fragment=2)                 0.4917887    -1.33963718    13.91386345
C(Fragment=2)                 -0.87254508    -1.10239926    13.92082743
C(Fragment=2)                 -1.75158876    -1.90033873    13.09077213
C(Fragment=2)                 -1.22608402    -2.90004727    12.28615259
C(Fragment=2)                 -1.71878303    -3.07700761    10.93488551
C(Fragment=2)                 -0.59548703    -3.4317721    10.08957477
C(Fragment=2)                 -0.51961759    -2.94484064    8.79385582
C(Fragment=2)                 0.74797337    -2.47770913    8.26726743
C(Fragment=2)                 2.56617949    -0.29853766    8.25648918
C(Fragment=2)                 1.3754438    -0.25678012    7.42888734
C(Fragment=2)                 0.4868925    -1.32078911    7.4332993
C(Fragment=2)                 -0.9412514    -1.0740677    7.44297109
C(Fragment=2)                 -1.56359669    -2.07692317    8.284105
C(Fragment=2)                 -2.63709764    -1.73575298    9.09224521
C(Fragment=2)                 -2.71616161    -2.2464696    10.44731953
C(Fragment=2)                 -3.2667991    -1.20247235    11.28748981
C(Fragment=2)                 -2.79252216    -1.03313852    12.57922989
C(Fragment=2)                 1.4205777    -0.22397437    13.90749943
C(Fragment=2)                 -1.37192795    0.25795206    13.9209941
C(Fragment=2)                 1.80319405    -3.0257889    10.41640304


